NAME: cum60.tsp
TYPE: TSP
COMMENT: User-generated TSP file
DIMENSION: 300
EDGE_WEIGHT_TYPE: EUC_2D
NODE_COORD_SECTION
1 180.0 144.0
2 300.0 127.0
3 184.0 51.0
4 40.0 148.0
5 110.0 81.0
6 78.0 260.0
7 96.0 202.0
8 293.0 109.0
9 65.0 254.0
10 203.0 145.0
11 72.0 287.0
12 130.0 181.0
13 268.0 167.0
14 124.0 82.0
15 5.0 89.0
16 66.0 258.0
17 282.0 267.0
18 218.0 84.0
19 291.0 94.0
20 153.0 61.0
21 265.0 127.0
22 256.0 66.0
23 158.0 104.0
24 83.0 90.0
25 290.0 138.0
26 187.0 168.0
27 64.0 8.0
28 207.0 297.0
29 168.0 229.0
30 211.0 187.0
31 291.0 208.0
32 227.0 232.0
33 207.0 64.0
34 182.0 203.0
35 33.0 116.0
36 262.0 25.0
37 121.0 272.0
38 267.0 175.0
39 285.0 186.0
40 52.0 286.0
41 237.0 88.0
42 283.0 252.0
43 167.0 73.0
44 215.0 74.0
45 169.0 289.0
46 162.0 136.0
47 11.0 229.0
48 36.0 262.0
49 55.0 254.0
50 98.0 83.0
51 134.0 96.0
52 163.0 228.0
53 200.0 279.0
54 19.0 118.0
55 130.0 145.0
56 2.0 293.0
57 220.0 260.0
58 238.0 19.0
59 247.0 75.0
60 12.0 246.0
61 64.0 48.0
62 283.0 262.0
63 188.0 47.0
64 256.0 196.0
65 77.0 254.0
66 219.0 208.0
67 106.0 6.0
68 87.0 49.0
69 131.0 238.0
70 38.0 260.0
71 52.0 244.0
72 187.0 207.0
73 285.0 263.0
74 4.0 30.0
75 288.0 264.0
76 156.0 180.0
77 69.0 239.0
78 85.0 107.0
79 112.0 89.0
80 260.0 42.0
81 67.0 39.0
82 95.0 69.0
83 275.0 257.0
84 19.0 176.0
85 232.0 44.0
86 300.0 263.0
87 76.0 106.0
88 287.0 203.0
89 28.0 48.0
90 126.0 274.0
91 264.0 41.0
92 138.0 111.0
93 103.0 277.0
94 87.0 289.0
95 89.0 136.0
96 217.0 279.0
97 17.0 265.0
98 172.0 57.0
99 180.0 30.0
100 66.0 158.0
101 281.0 183.0
102 29.0 260.0
103 215.0 120.0
104 203.0 171.0
105 35.0 242.0
106 1.0 24.0
107 167.0 289.0
108 159.0 250.0
109 152.0 74.0
110 27.0 140.0
111 270.0 93.0
112 91.0 109.0
113 105.0 285.0
114 251.0 257.0
115 210.0 255.0
116 6.0 178.0
117 292.0 193.0
118 34.0 225.0
119 22.0 66.0
120 122.0 82.0
121 241.0 208.0
122 194.0 237.0
123 289.0 90.0
124 94.0 207.0
125 59.0 11.0
126 3.0 75.0
127 215.0 170.0
128 82.0 179.0
129 125.0 77.0
130 132.0 64.0
131 286.0 80.0
132 281.0 262.0
133 184.0 102.0
134 48.0 182.0
135 283.0 291.0
136 192.0 106.0
137 264.0 224.0
138 169.0 281.0
139 102.0 262.0
140 117.0 191.0
141 20.0 30.0
142 85.0 75.0
143 12.0 40.0
144 17.0 98.0
145 68.0 94.0
146 223.0 78.0
147 199.0 117.0
148 104.0 32.0
149 197.0 81.0
150 84.0 232.0
151 56.0 162.0
152 280.0 93.0
153 58.0 202.0
154 93.0 79.0
155 16.0 7.0
156 230.0 48.0
157 125.0 80.0
158 225.0 207.0
159 179.0 263.0
160 65.0 235.0
161 278.0 35.0
162 112.0 86.0
163 213.0 11.0
164 64.0 177.0
165 150.0 112.0
166 67.0 262.0
167 30.0 70.0
168 41.0 116.0
169 79.0 30.0
170 294.0 299.0
171 280.0 157.0
172 109.0 161.0
173 146.0 267.0
174 50.0 82.0
175 109.0 266.0
176 201.0 107.0
177 238.0 247.0
178 101.0 37.0
179 96.0 252.0
180 294.0 102.0
181 238.0 196.0
182 58.0 281.0
183 60.0 93.0
184 273.0 32.0
185 15.0 88.0
186 77.0 79.0
187 276.0 28.0
188 85.0 67.0
189 204.0 33.0
190 183.0 297.0
191 36.0 124.0
192 54.0 226.0
193 96.0 143.0
194 281.0 54.0
195 251.0 22.0
196 144.0 179.0
197 73.0 241.0
198 26.0 67.0
199 209.0 63.0
200 135.0 218.0
201 102.0 239.0
202 187.0 27.0
203 96.0 254.0
204 206.0 148.0
205 136.0 73.0
206 65.0 257.0
207 275.0 12.0
208 230.0 145.0
209 230.0 38.0
210 189.0 128.0
211 298.0 232.0
212 154.0 268.0
213 162.0 97.0
214 110.0 126.0
215 147.0 97.0
216 63.0 134.0
217 219.0 172.0
218 244.0 140.0
219 262.0 102.0
220 104.0 17.0
221 25.0 274.0
222 249.0 37.0
223 1.0 125.0
224 117.0 191.0
225 4.0 184.0
226 10.0 257.0
227 217.0 47.0
228 121.0 200.0
229 255.0 283.0
230 66.0 227.0
231 249.0 117.0
232 187.0 79.0
233 125.0 53.0
234 34.0 51.0
235 88.0 272.0
236 26.0 221.0
237 129.0 65.0
238 246.0 147.0
239 255.0 269.0
240 217.0 273.0
241 192.0 130.0
242 155.0 155.0
243 290.0 133.0
244 194.0 110.0
245 268.0 129.0
246 278.0 167.0
247 106.0 165.0
248 283.0 223.0
249 48.0 288.0
250 190.0 71.0
251 160.0 31.0
252 170.0 148.0
253 66.0 271.0
254 126.0 258.0
255 73.0 260.0
256 80.0 113.0
257 219.0 287.0
258 229.0 233.0
259 250.0 159.0
260 123.0 141.0
261 242.0 15.0
262 22.0 194.0
263 111.0 61.0
264 29.0 182.0
265 299.0 64.0
266 261.0 181.0
267 191.0 13.0
268 25.0 100.0
269 138.0 44.0
270 165.0 161.0
271 203.0 215.0
272 189.0 128.0
273 8.0 232.0
274 230.0 173.0
275 250.0 51.0
276 45.0 296.0
277 79.0 138.0
278 149.0 112.0
279 185.0 100.0
280 240.0 3.0
281 42.0 244.0
282 75.0 4.0
283 189.0 35.0
284 127.0 193.0
285 163.0 182.0
286 227.0 204.0
287 95.0 154.0
288 84.0 176.0
289 284.0 43.0
290 62.0 155.0
291 106.0 252.0
292 287.0 85.0
293 241.0 131.0
294 26.0 165.0
295 159.0 289.0
296 209.0 116.0
297 181.0 242.0
298 294.0 84.0
299 21.0 27.0
300 194.0 52.0
EOF

